(set-logic HORN)
(set-info :source |
    Benchmark: C_VC
    Output by Princess (http://www.philipp.ruemmer.org/princess.shtml)
|)
(set-info :status unsat)
;===============================================================================
; Encoding of Heap sorts and operations
;-------------------------------------------------------------------------------
(define-sort Addr() Int)
(declare-datatypes ((HeapObject 0) (TSLL 0))
                   (((O_Int (getInt Int)) (O_UInt (getUInt Int)) (O_Addr (getAddr Addr)) (O_TSLL (getTSLL TSLL)) (defObj))
                   ((TSLL (next Addr) (inner Addr)))))
(declare-datatypes ((AllocResHeap 0) (Heap 0))
                   (((AllocResHeap   (newHeap Heap) (newAddr Addr)))
                    ((HeapCtor (HeapSize Int)
                               (HeapContents (Array Addr HeapObject))))))
(define-fun nullAddr  () Addr 0)
(define-fun valid     ((h Heap) (p Addr)) Bool
  (and (>= (HeapSize h) p) (> p 0)))
(define-fun emptyHeap () Heap (
  HeapCtor 0 (( as const (Array Addr HeapObject)) defObj)))
(define-fun read ((h Heap) (p Addr)) HeapObject
  (ite (valid h p)
       (select (HeapContents h) p)
       defObj))
(define-fun write ((h Heap) (p Addr) (o HeapObject)) Heap
  (ite (valid h p)
       (HeapCtor (HeapSize h) (store (HeapContents h) p o))
       h))
(define-fun alloc   ((h Heap) (o HeapObject)) AllocResHeap
  (AllocResHeap (HeapCtor (+ 1 (HeapSize h))
                    (store (HeapContents h) (+ 1 (HeapSize h)) o))
          (+ 1 (HeapSize h))))

;===============================================================================
(declare-fun inv_main10 (Heap Addr) Bool)
(declare-fun inv_main103 (Heap Addr Addr) Bool)
(declare-fun inv_main106 (Heap Addr Addr) Bool)
(declare-fun inv_main109 (Heap Addr Addr) Bool)
(declare-fun inv_main11 (Heap Addr) Bool)
(declare-fun inv_main111 (Heap Addr Addr) Bool)
(declare-fun inv_main114 (Heap Addr Addr) Bool)
(declare-fun inv_main116 (Heap Addr Addr) Bool)
(declare-fun inv_main121 (Heap Addr Addr) Bool)
(declare-fun inv_main14 (Heap Addr) Bool)
(declare-fun inv_main15 (Heap Addr Addr) Bool)
(declare-fun inv_main16 (Heap Addr) Bool)
(declare-fun inv_main19 (Heap Addr) Bool)
(declare-fun inv_main2 (Heap) Bool)
(declare-fun inv_main21 (Heap Addr Addr) Bool)
(declare-fun inv_main26 (Heap Addr Addr) Bool)
(declare-fun inv_main3 (Heap Addr) Bool)
(declare-fun inv_main30 (Heap Addr Addr) Bool)
(declare-fun inv_main31 (Heap Addr Addr Addr) Bool)
(declare-fun inv_main32 (Heap Addr Addr) Bool)
(declare-fun inv_main37 (Heap Addr Addr) Bool)
(declare-fun inv_main42 (Heap Addr Addr) Bool)
(declare-fun inv_main45 (Heap Addr Addr) Bool)
(declare-fun inv_main46 (Heap Addr Addr) Bool)
(declare-fun inv_main49 (Heap Addr Addr) Bool)
(declare-fun inv_main50 (Heap Addr Addr Addr) Bool)
(declare-fun inv_main51 (Heap Addr Addr) Bool)
(declare-fun inv_main54 (Heap Addr Addr) Bool)
(declare-fun inv_main56 (Heap Addr Addr Addr) Bool)
(declare-fun inv_main64 (Heap Addr Addr) Bool)
(declare-fun inv_main69 (Heap Addr Addr Int) Bool)
(declare-fun inv_main7 (Heap Addr) Bool)
(declare-fun inv_main70 (Heap Addr Addr Int Addr) Bool)
(declare-fun inv_main76 (Heap Addr Addr Int Addr) Bool)
(declare-fun inv_main78 (Heap Addr Addr Int Addr) Bool)
(declare-fun inv_main81 (Heap Addr Addr Int Addr) Bool)
(declare-fun inv_main83 (Heap Addr Addr Int Addr) Bool)
(declare-fun inv_main86 (Heap Addr Addr Int Addr) Bool)
(declare-fun inv_main88 (Heap Addr Addr Int Addr) Bool)
(declare-fun inv_main93 (Heap Addr Addr Int Addr) Bool)
(declare-fun inv_main96 (Heap Addr Addr Int Addr) Bool)
(declare-fun inv_main98 (Heap Addr Addr Int Addr) Bool)
(assert (inv_main2 emptyHeap))
(assert (forall ((var0 Addr) (var1 Int) (var2 Addr) (var3 Addr) (var4 Heap)) (or (not (and (inv_main76 var4 var3 var2 var1 var0) (and (is-O_TSLL (read var4 var0)) (= nullAddr (inner (getTSLL (read var4 var0))))))) (inv_main81 var4 var3 var2 var1 var0))))
(assert (forall ((var0 Addr) (var1 Int) (var2 Addr) (var3 Addr) (var4 Heap) (var5 Addr) (var6 Addr) (var7 Int) (var8 Addr) (var9 Addr) (var10 Heap)) (or (not (and (inv_main96 var10 var9 var8 var7 var6) (and (not (= nullAddr var5)) (and (is-O_TSLL (read var10 var8)) (and (and (and (and (and (= var4 var10) (= var3 var9)) (= var2 var8)) (= var1 var7)) (= var0 var6)) (= var5 (next (getTSLL (read var10 var8))))))))) (inv_main69 var4 var3 var5 0))))
(assert (forall ((var0 Addr) (var1 Heap) (var2 Int) (var3 Addr) (var4 Addr) (var5 Addr) (var6 Heap)) (or (not (and (inv_main26 var6 var5 var4) (and (not (= nullAddr var3)) (and (not (= nullAddr var3)) (and (= var2 0) (and (and (= var1 var6) (= var3 var5)) (= var0 nullAddr))))))) (inv_main69 var1 var3 var3 0))))
(assert (forall ((var0 Addr) (var1 Int) (var2 Addr) (var3 Addr) (var4 Heap)) (or (not (and (inv_main81 var4 var3 var2 var1 var0) (and (is-O_TSLL (read var4 var0)) (not (= nullAddr (next (getTSLL (read var4 var0)))))))) (inv_main88 var4 var3 var2 var1 var0))))
(assert (forall ((var0 Addr) (var1 Addr) (var2 Heap) (var3 Addr) (var4 Addr) (var5 Addr) (var6 Heap)) (or (not (and (inv_main103 var6 var5 var4) (and (not (= nullAddr var3)) (and (not (= nullAddr var3)) (and (is-O_TSLL (read var6 var5)) (and (and (and (= var2 var6) (= var1 var5)) (= var0 var4)) (= var3 (inner (getTSLL (read var6 var5)))))))))) (inv_main109 var2 var1 var3))))
(assert (forall ((var0 Heap) (var1 Addr) (var2 Addr) (var3 Heap)) (or (not (and (inv_main3 var3 var2) (and (and (= var1 nullAddr) (is-O_TSLL (read var3 var2))) (and (= var0 (write var3 var2 (O_TSLL (TSLL nullAddr (inner (getTSLL (read var3 var2))))))) (= var1 var2))))) (inv_main7 var0 var1))))
(assert (forall ((var0 Addr) (var1 Addr) (var2 Heap)) (or (not (and (inv_main109 var2 var1 var0) (and (is-O_TSLL (read var2 var0)) (= nullAddr (inner (getTSLL (read var2 var0))))))) (inv_main114 var2 var1 var0))))
(assert (forall ((var0 TSLL) (var1 Int) (var2 Addr) (var3 Addr) (var4 Heap)) (or (not (and (inv_main26 var4 var3 var2) (not (= var1 0)))) (inv_main31 (newHeap (alloc var4 (O_TSLL var0))) var3 var2 (newAddr (alloc var4 (O_TSLL var0)))))))
(assert (forall ((var0 Addr) (var1 Addr) (var2 Heap)) (or (not (and (inv_main109 var2 var1 var0) (and (is-O_TSLL (read var2 var0)) (not (= nullAddr (inner (getTSLL (read var2 var0)))))))) (inv_main116 var2 var1 var0))))
(assert (forall ((var0 Addr) (var1 Int) (var2 Addr) (var3 Addr) (var4 Heap)) (or (not (and (inv_main70 var4 var3 var2 var1 var0) (and (= nullAddr var0) (and (= var1 0) (not (= nullAddr var0)))))) (inv_main78 var4 var3 var2 1 var0))))
(assert (forall ((var0 Addr) (var1 Int) (var2 Addr) (var3 Addr) (var4 Heap)) (or (not (and (inv_main70 var4 var3 var2 var1 var0) (and (= nullAddr var0) (and (not (= var1 0)) (not (= nullAddr var0)))))) (inv_main78 var4 var3 var2 2 var0))))
(assert (forall ((var0 Heap) (var1 Addr) (var2 Int) (var3 Addr) (var4 Heap)) (or (not (and (inv_main3 var4 var3) (and (not (= var2 0)) (and (and (not (= var1 nullAddr)) (is-O_TSLL (read var4 var3))) (and (= var0 (write var4 var3 (O_TSLL (TSLL nullAddr (inner (getTSLL (read var4 var3))))))) (= var1 var3)))))) (inv_main11 var0 var1))))
(assert (forall ((var0 TSLL) (var1 Addr) (var2 Heap) (var3 Addr) (var4 Int) (var5 Addr) (var6 Addr) (var7 Heap)) (or (not (and (inv_main32 var7 var6 var5) (and (= var4 0) (and (not (= var3 nullAddr)) (and (and (not (= nullAddr var3)) (is-O_TSLL (read var7 var5))) (and (and (= var2 (write var7 var5 (O_TSLL (TSLL nullAddr (inner (getTSLL (read var7 var5))))))) (= var1 var6)) (= var3 var5))))))) (inv_main50 (newHeap (alloc var2 (O_TSLL var0))) var1 var3 (newAddr (alloc var2 (O_TSLL var0)))))))
(assert (forall ((var0 Addr) (var1 Addr) (var2 Heap)) (or (not (and (inv_main49 var2 var1 var0) (and (is-O_TSLL (read var2 var0)) (is-O_TSLL (read var2 (inner (getTSLL (read var2 var0)))))))) (inv_main51 (write var2 (inner (getTSLL (read var2 var0))) (O_TSLL (TSLL nullAddr (inner (getTSLL (read var2 (inner (getTSLL (read var2 var0))))))))) var1 var0))))
(assert (forall ((var0 Addr) (var1 Int) (var2 Addr) (var3 Addr) (var4 Heap)) (or (not (and (inv_main70 var4 var3 var2 var1 var0) (and (not (= nullAddr var0)) (and (= var1 0) (not (= nullAddr var0)))))) (inv_main76 var4 var3 var2 1 var0))))
(assert (forall ((var0 Addr) (var1 Int) (var2 Addr) (var3 Addr) (var4 Heap)) (or (not (and (inv_main70 var4 var3 var2 var1 var0) (and (not (= nullAddr var0)) (and (not (= var1 0)) (not (= nullAddr var0)))))) (inv_main76 var4 var3 var2 2 var0))))
(assert (forall ((var0 Addr) (var1 Addr) (var2 Heap)) (or (not (and (inv_main15 var2 var1 var0) (is-O_TSLL (read var2 var1)))) (inv_main14 (write var2 var1 (O_TSLL (TSLL (next (getTSLL (read var2 var1))) var0))) var1))))
(assert (forall ((var0 Addr) (var1 Addr) (var2 Addr) (var3 Heap)) (or (not (and (inv_main50 var3 var2 var1 var0) (is-O_TSLL (read var3 var1)))) (inv_main49 (write var3 var1 (O_TSLL (TSLL (next (getTSLL (read var3 var1))) var0))) var2 var1))))
(assert (forall ((var0 Addr) (var1 Addr) (var2 Addr) (var3 Heap)) (or (not (and (inv_main31 var3 var2 var1 var0) (is-O_TSLL (read var3 var1)))) (inv_main30 (write var3 var1 (O_TSLL (TSLL var0 (inner (getTSLL (read var3 var1)))))) var2 var1))))
(assert (forall ((var0 Addr) (var1 Heap) (var2 Addr) (var3 Addr) (var4 Addr) (var5 Heap)) (or (not (and (inv_main32 var5 var4 var3) (and (and (= nullAddr var2) (is-O_TSLL (read var5 var3))) (and (and (= var1 (write var5 var3 (O_TSLL (TSLL nullAddr (inner (getTSLL (read var5 var3))))))) (= var0 var4)) (= var2 var3))))) (inv_main37 var1 var0 var2))))
(assert (forall ((var0 Addr) (var1 Heap)) (or (not (and (inv_main14 var1 var0) (and (is-O_TSLL (read var1 var0)) (is-O_TSLL (read var1 (inner (getTSLL (read var1 var0)))))))) (inv_main16 (write var1 (inner (getTSLL (read var1 var0))) (O_TSLL (TSLL nullAddr (inner (getTSLL (read var1 (inner (getTSLL (read var1 var0))))))))) var0))))
(assert (forall ((var0 Addr) (var1 Addr) (var2 Addr) (var3 Heap)) (or (not (and (inv_main56 var3 var2 var1 var0) (not (= var0 nullAddr)))) (inv_main26 var3 var2 var1))))
(assert (forall ((var0 Addr) (var1 Addr) (var2 Heap) (var3 Addr) (var4 Addr) (var5 Addr) (var6 Heap) (var7 Int) (var8 Addr) (var9 Addr) (var10 Addr) (var11 Heap)) (or (not (and (inv_main56 var11 var10 var9 var8) (and (and (not (= var7 0)) (and (and (= var8 nullAddr) (is-O_TSLL (read var11 var9))) (and (and (and (= var6 var11) (= var5 var10)) (= var4 var9)) (= var3 (inner (getTSLL (read var11 var9))))))) (and (and (and (= var2 var6) (= var1 var5)) (= var0 var4)) (or (and (= var3 nullAddr) (= var7 1)) (and (not (= var3 nullAddr)) (= var7 0))))))) (inv_main26 var2 var1 var0))))
(assert (forall ((var0 Addr) (var1 Addr) (var2 Heap)) (or (not (and (inv_main21 var2 var1 var0) (not (= var0 nullAddr)))) (inv_main26 var2 var1 var1))))
(assert (forall ((var0 Addr) (var1 Heap) (var2 Addr) (var3 Addr) (var4 Heap) (var5 Int) (var6 Addr) (var7 Addr) (var8 Heap)) (or (not (and (inv_main21 var8 var7 var6) (and (and (not (= var5 0)) (and (and (= var6 nullAddr) (is-O_TSLL (read var8 var7))) (and (and (= var4 var8) (= var3 var7)) (= var2 (inner (getTSLL (read var8 var7))))))) (and (and (= var1 var4) (= var0 var3)) (or (and (= var2 nullAddr) (= var5 1)) (and (not (= var2 nullAddr)) (= var5 0))))))) (inv_main26 var1 var0 var0))))
(assert (forall ((var0 Addr) (var1 Addr) (var2 Addr) (var3 Heap) (var4 Addr) (var5 Addr) (var6 Heap)) (or (not (and (inv_main30 var6 var5 var4) (and (is-O_TSLL (read var6 var4)) (and (and (and (= var3 var6) (= var2 var5)) (= var1 var4)) (= var0 (next (getTSLL (read var6 var4)))))))) (inv_main32 var3 var2 var0))))
(assert (forall ((var0 TSLL) (var1 Heap)) (or (not (inv_main2 var1)) (inv_main3 (newHeap (alloc var1 (O_TSLL var0))) (newAddr (alloc var1 (O_TSLL var0)))))))
(assert (forall ((var0 Addr) (var1 Int) (var2 Addr) (var3 Addr) (var4 Heap)) (or (not (and (inv_main70 var4 var3 var2 var1 var0) (and (not (<= 0 (+ 1 (* (- 1) var1)))) (= nullAddr var0)))) (inv_main98 var4 var3 var2 var1 var0))))
(assert (forall ((var0 Addr) (var1 Heap) (var2 Int) (var3 Addr) (var4 Addr) (var5 Addr) (var6 Heap)) (or (not (and (inv_main26 var6 var5 var4) (and (= nullAddr var3) (and (= var2 0) (and (and (= var1 var6) (= var3 var5)) (= var0 nullAddr)))))) (inv_main64 var1 var3 var3))))
(assert (forall ((var0 Addr) (var1 Addr) (var2 Addr) (var3 Addr) (var4 Heap) (var5 Int) (var6 Addr) (var7 Int) (var8 Addr) (var9 Addr) (var10 Heap)) (or (not (and (inv_main86 var10 var9 var8 var7 var6) (and (= var5 1) (and (is-O_TSLL (read var10 var6)) (and (and (and (and (and (= var4 var10) (= var3 var9)) (= var2 var8)) (= var5 var7)) (= var1 var6)) (= var0 (inner (getTSLL (read var10 var6))))))))) (inv_main93 var4 var3 var2 var5 var0))))
(assert (forall ((var0 Int) (var1 Addr) (var2 Addr) (var3 Heap)) (or (not (and (inv_main69 var3 var2 var1 var0) (is-O_TSLL (read var3 var1)))) (inv_main70 var3 var2 var1 var0 (inner (getTSLL (read var3 var1)))))))
(assert (forall ((var0 Addr) (var1 Addr) (var2 Int) (var3 Addr) (var4 Addr) (var5 Heap) (var6 Addr) (var7 Int) (var8 Addr) (var9 Addr) (var10 Heap)) (or (not (and (inv_main93 var10 var9 var8 var7 var6) (and (is-O_TSLL (read var10 var6)) (and (and (and (and (and (= var5 var10) (= var4 var9)) (= var3 var8)) (= var2 var7)) (= var1 var6)) (= var0 (inner (getTSLL (read var10 var6)))))))) (inv_main70 var5 var4 var3 var2 var0))))
(assert (forall ((var0 Addr) (var1 Addr) (var2 Addr) (var3 Addr) (var4 Heap) (var5 Int) (var6 Addr) (var7 Int) (var8 Addr) (var9 Addr) (var10 Heap)) (or (not (and (inv_main86 var10 var9 var8 var7 var6) (and (not (= var5 1)) (and (is-O_TSLL (read var10 var6)) (and (and (and (and (and (= var4 var10) (= var3 var9)) (= var2 var8)) (= var5 var7)) (= var1 var6)) (= var0 (inner (getTSLL (read var10 var6))))))))) (inv_main70 var4 var3 var2 var5 var0))))
(assert (forall ((var0 Addr) (var1 Heap) (var2 Addr) (var3 Addr) (var4 Addr) (var5 Heap)) (or (not (and (inv_main32 var5 var4 var3) (and (= var2 nullAddr) (and (and (not (= nullAddr var2)) (is-O_TSLL (read var5 var3))) (and (and (= var1 (write var5 var3 (O_TSLL (TSLL nullAddr (inner (getTSLL (read var5 var3))))))) (= var0 var4)) (= var2 var3)))))) (inv_main42 var1 var0 var2))))
(assert (forall ((var0 Addr) (var1 Addr) (var2 Heap)) (or (not (and (inv_main114 var2 var1 var0) (and (is-O_TSLL (read var2 var0)) (not (= nullAddr (next (getTSLL (read var2 var0)))))))) (inv_main121 var2 var1 var0))))
(assert (forall ((var0 Addr) (var1 Int) (var2 Addr) (var3 Addr) (var4 Heap)) (or (not (and (inv_main81 var4 var3 var2 var1 var0) (and (is-O_TSLL (read var4 var0)) (= nullAddr (next (getTSLL (read var4 var0))))))) (inv_main86 var4 var3 var2 var1 var0))))
(assert (forall ((var0 Addr) (var1 Addr) (var2 Heap) (var3 Addr) (var4 Addr) (var5 Addr) (var6 Heap)) (or (not (and (inv_main103 var6 var5 var4) (and (= nullAddr var3) (and (is-O_TSLL (read var6 var5)) (and (and (and (= var2 var6) (= var1 var5)) (= var0 var4)) (= var3 (inner (getTSLL (read var6 var5))))))))) (inv_main106 var2 var1 var3))))
(assert (forall ((var0 Addr) (var1 Addr) (var2 Heap) (var3 Addr) (var4 Addr) (var5 Heap)) (or (not (and (inv_main114 var5 var4 var3) (and (and (is-O_TSLL (read var5 var3)) (= nullAddr (next (getTSLL (read var5 var3))))) (and (and (= var2 (write var5 var3 defObj)) (= var1 var4)) (= var0 var3))))) (inv_main106 var2 var1 nullAddr))))
(assert (forall ((var0 Addr) (var1 Int) (var2 Addr) (var3 Addr) (var4 Heap)) (or (not (and (inv_main76 var4 var3 var2 var1 var0) (and (is-O_TSLL (read var4 var0)) (not (= nullAddr (inner (getTSLL (read var4 var0)))))))) (inv_main83 var4 var3 var2 var1 var0))))
(assert (forall ((var0 Addr) (var1 Heap) (var2 Addr) (var3 Addr) (var4 Heap) (var5 Int) (var6 Addr) (var7 Addr) (var8 Heap)) (or (not (and (inv_main21 var8 var7 var6) (and (and (= var5 0) (and (and (= var6 nullAddr) (is-O_TSLL (read var8 var7))) (and (and (= var4 var8) (= var3 var7)) (= var2 (inner (getTSLL (read var8 var7))))))) (and (and (= var1 var4) (= var0 var3)) (or (and (= var2 nullAddr) (= var5 1)) (and (not (= var2 nullAddr)) (= var5 0))))))) (inv_main19 var1 var0))))
(assert (forall ((var0 Addr) (var1 Addr) (var2 Heap)) (or (not (and (inv_main45 var2 var1 var0) (is-O_TSLL (read var2 var0)))) (inv_main56 var2 var1 var0 (inner (getTSLL (read var2 var0)))))))
(assert (forall ((var0 Addr) (var1 Heap)) (or (not (and (inv_main11 var1 var0) (is-O_TSLL (read var1 var0)))) (inv_main10 (write var1 var0 (O_TSLL (TSLL (next (getTSLL (read var1 var0))) nullAddr))) var0))))
(assert (forall ((var0 Addr) (var1 Heap)) (or (not (and (inv_main16 var1 var0) (and (is-O_TSLL (read var1 var0)) (is-O_TSLL (read var1 (inner (getTSLL (read var1 var0)))))))) (inv_main10 (write var1 (inner (getTSLL (read var1 var0))) (O_TSLL (TSLL (next (getTSLL (read var1 (inner (getTSLL (read var1 var0)))))) nullAddr))) var0))))
(assert (forall ((var0 Addr) (var1 Heap) (var2 Addr) (var3 Addr) (var4 Addr) (var5 Heap) (var6 Addr) (var7 Addr) (var8 Addr) (var9 Heap)) (or (not (and (inv_main106 var9 var8 var7) (and (not (= nullAddr var6)) (and (and (is-O_TSLL (read var9 var8)) (and (and (and (= var5 var9) (= var4 var8)) (= var3 var7)) (= var2 (next (getTSLL (read var9 var8)))))) (and (and (= var1 (write var5 var4 defObj)) (= var0 var4)) (= var6 var2)))))) (inv_main103 var1 var6 var6))))
(assert (forall ((var0 Addr) (var1 Int) (var2 Addr) (var3 Heap) (var4 Addr) (var5 Addr) (var6 Addr) (var7 Int) (var8 Addr) (var9 Addr) (var10 Heap)) (or (not (and (inv_main96 var10 var9 var8 var7 var6) (and (not (= nullAddr var5)) (and (= nullAddr var4) (and (is-O_TSLL (read var10 var8)) (and (and (and (and (and (= var3 var10) (= var5 var9)) (= var2 var8)) (= var1 var7)) (= var0 var6)) (= var4 (next (getTSLL (read var10 var8)))))))))) (inv_main103 var3 var5 var4))))
(assert (forall ((var0 Addr) (var1 Heap) (var2 Int) (var3 Addr) (var4 Addr) (var5 Addr) (var6 Heap)) (or (not (and (inv_main26 var6 var5 var4) (and (not (= nullAddr var3)) (and (= nullAddr var3) (and (not (= nullAddr var3)) (and (= var2 0) (and (and (= var1 var6) (= var3 var5)) (= var0 nullAddr)))))))) (inv_main103 var1 var3 var3))))
(assert (forall ((var0 Addr) (var1 Heap)) (or (not (and (inv_main10 var1 var0) (is-O_TSLL (read var1 var0)))) (inv_main21 var1 var0 (inner (getTSLL (read var1 var0)))))))
(assert (forall ((var0 Addr) (var1 Addr) (var2 Heap) (var3 Addr) (var4 Addr) (var5 Addr) (var6 Heap) (var7 Int) (var8 Addr) (var9 Addr) (var10 Addr) (var11 Heap)) (or (not (and (inv_main56 var11 var10 var9 var8) (and (and (= var7 0) (and (and (= var8 nullAddr) (is-O_TSLL (read var11 var9))) (and (and (and (= var6 var11) (= var5 var10)) (= var4 var9)) (= var3 (inner (getTSLL (read var11 var9))))))) (and (and (and (= var2 var6) (= var1 var5)) (= var0 var4)) (or (and (= var3 nullAddr) (= var7 1)) (and (not (= var3 nullAddr)) (= var7 0))))))) (inv_main54 var2 var1 var0))))
(assert (forall ((var0 Addr) (var1 Heap) (var2 Addr) (var3 Int) (var4 Addr) (var5 Addr) (var6 Heap)) (or (not (and (inv_main32 var6 var5 var4) (and (not (= var3 0)) (and (not (= var2 nullAddr)) (and (and (not (= nullAddr var2)) (is-O_TSLL (read var6 var4))) (and (and (= var1 (write var6 var4 (O_TSLL (TSLL nullAddr (inner (getTSLL (read var6 var4))))))) (= var0 var5)) (= var2 var4))))))) (inv_main46 var1 var0 var2))))
(assert (forall ((var0 Addr) (var1 Addr) (var2 Heap)) (or (not (and (inv_main46 var2 var1 var0) (is-O_TSLL (read var2 var0)))) (inv_main45 (write var2 var0 (O_TSLL (TSLL (next (getTSLL (read var2 var0))) nullAddr))) var1 var0))))
(assert (forall ((var0 Addr) (var1 Addr) (var2 Heap)) (or (not (and (inv_main51 var2 var1 var0) (and (is-O_TSLL (read var2 var0)) (is-O_TSLL (read var2 (inner (getTSLL (read var2 var0)))))))) (inv_main45 (write var2 (inner (getTSLL (read var2 var0))) (O_TSLL (TSLL (next (getTSLL (read var2 (inner (getTSLL (read var2 var0)))))) nullAddr))) var1 var0))))
(assert (forall ((var0 Addr) (var1 Addr) (var2 Heap) (var3 Addr) (var4 Addr) (var5 Addr) (var6 Heap)) (or (not (and (inv_main103 var6 var5 var4) (and (= nullAddr var3) (and (not (= nullAddr var3)) (and (is-O_TSLL (read var6 var5)) (and (and (and (= var2 var6) (= var1 var5)) (= var0 var4)) (= var3 (inner (getTSLL (read var6 var5)))))))))) (inv_main111 var2 var1 var3))))
(assert (forall ((var0 TSLL) (var1 Heap) (var2 Addr) (var3 Int) (var4 Addr) (var5 Heap)) (or (not (and (inv_main3 var5 var4) (and (= var3 0) (and (and (not (= var2 nullAddr)) (is-O_TSLL (read var5 var4))) (and (= var1 (write var5 var4 (O_TSLL (TSLL nullAddr (inner (getTSLL (read var5 var4))))))) (= var2 var4)))))) (inv_main15 (newHeap (alloc var1 (O_TSLL var0))) var2 (newAddr (alloc var1 (O_TSLL var0)))))))
(assert (forall ((var0 Addr) (var1 Int) (var2 Addr) (var3 Addr) (var4 Heap)) (or (not (and (inv_main70 var4 var3 var2 var1 var0) (and (<= 0 (+ 1 (* (- 1) var1))) (= nullAddr var0)))) (inv_main96 var4 var3 var2 var1 var0))))
(assert (forall ((var0 Addr) (var1 Heap)) (not (and (inv_main3 var1 var0) (not (is-O_TSLL (read var1 var0)))))))
(assert (forall ((var0 Addr) (var1 Heap)) (not (inv_main7 var1 var0))))
(assert (forall ((var0 Addr) (var1 Heap)) (not (and (inv_main11 var1 var0) (not (is-O_TSLL (read var1 var0)))))))
(assert (forall ((var0 Addr) (var1 Addr) (var2 Heap)) (not (and (inv_main15 var2 var1 var0) (not (is-O_TSLL (read var2 var1)))))))
(assert (forall ((var0 Addr) (var1 Heap)) (not (and (inv_main14 var1 var0) (not (is-O_TSLL (read var1 var0)))))))
(assert (forall ((var0 Addr) (var1 Heap)) (not (and (inv_main14 var1 var0) (and (is-O_TSLL (read var1 var0)) (not (is-O_TSLL (read var1 (inner (getTSLL (read var1 var0)))))))))))
(assert (forall ((var0 Addr) (var1 Heap)) (not (and (inv_main16 var1 var0) (not (is-O_TSLL (read var1 var0)))))))
(assert (forall ((var0 Addr) (var1 Heap)) (not (and (inv_main16 var1 var0) (and (is-O_TSLL (read var1 var0)) (not (is-O_TSLL (read var1 (inner (getTSLL (read var1 var0)))))))))))
(assert (forall ((var0 Addr) (var1 Heap)) (not (and (inv_main10 var1 var0) (not (is-O_TSLL (read var1 var0)))))))
(assert (forall ((var0 Addr) (var1 Addr) (var2 Heap)) (not (and (inv_main21 var2 var1 var0) (and (= var0 nullAddr) (not (is-O_TSLL (read var2 var1))))))))
(assert (forall ((var0 Addr) (var1 Heap)) (not (inv_main19 var1 var0))))
(assert (forall ((var0 Addr) (var1 Addr) (var2 Addr) (var3 Heap)) (not (and (inv_main31 var3 var2 var1 var0) (not (is-O_TSLL (read var3 var1)))))))
(assert (forall ((var0 Addr) (var1 Addr) (var2 Heap)) (not (and (inv_main30 var2 var1 var0) (not (is-O_TSLL (read var2 var0)))))))
(assert (forall ((var0 Addr) (var1 Addr) (var2 Heap)) (not (and (inv_main32 var2 var1 var0) (not (is-O_TSLL (read var2 var0)))))))
(assert (forall ((var0 Addr) (var1 Addr) (var2 Heap)) (not (inv_main37 var2 var1 var0))))
(assert (forall ((var0 Addr) (var1 Addr) (var2 Heap)) (not (inv_main42 var2 var1 var0))))
(assert (forall ((var0 Addr) (var1 Addr) (var2 Heap)) (not (and (inv_main46 var2 var1 var0) (not (is-O_TSLL (read var2 var0)))))))
(assert (forall ((var0 Addr) (var1 Addr) (var2 Addr) (var3 Heap)) (not (and (inv_main50 var3 var2 var1 var0) (not (is-O_TSLL (read var3 var1)))))))
(assert (forall ((var0 Addr) (var1 Addr) (var2 Heap)) (not (and (inv_main49 var2 var1 var0) (not (is-O_TSLL (read var2 var0)))))))
(assert (forall ((var0 Addr) (var1 Addr) (var2 Heap)) (not (and (inv_main49 var2 var1 var0) (and (is-O_TSLL (read var2 var0)) (not (is-O_TSLL (read var2 (inner (getTSLL (read var2 var0)))))))))))
(assert (forall ((var0 Addr) (var1 Addr) (var2 Heap)) (not (and (inv_main51 var2 var1 var0) (not (is-O_TSLL (read var2 var0)))))))
(assert (forall ((var0 Addr) (var1 Addr) (var2 Heap)) (not (and (inv_main51 var2 var1 var0) (and (is-O_TSLL (read var2 var0)) (not (is-O_TSLL (read var2 (inner (getTSLL (read var2 var0)))))))))))
(assert (forall ((var0 Addr) (var1 Addr) (var2 Heap)) (not (and (inv_main45 var2 var1 var0) (not (is-O_TSLL (read var2 var0)))))))
(assert (forall ((var0 Addr) (var1 Addr) (var2 Addr) (var3 Heap)) (not (and (inv_main56 var3 var2 var1 var0) (and (= var0 nullAddr) (not (is-O_TSLL (read var3 var1))))))))
(assert (forall ((var0 Addr) (var1 Addr) (var2 Heap)) (not (inv_main54 var2 var1 var0))))
(assert (forall ((var0 Addr) (var1 Addr) (var2 Heap)) (not (inv_main64 var2 var1 var0))))
(assert (forall ((var0 Int) (var1 Addr) (var2 Addr) (var3 Heap)) (not (and (inv_main69 var3 var2 var1 var0) (not (is-O_TSLL (read var3 var1)))))))
(assert (forall ((var0 Addr) (var1 Int) (var2 Addr) (var3 Addr) (var4 Heap)) (not (inv_main78 var4 var3 var2 var1 var0))))
(assert (forall ((var0 Addr) (var1 Int) (var2 Addr) (var3 Addr) (var4 Heap)) (not (and (inv_main76 var4 var3 var2 var1 var0) (not (is-O_TSLL (read var4 var0)))))))
(assert (forall ((var0 Addr) (var1 Int) (var2 Addr) (var3 Addr) (var4 Heap)) (not (inv_main83 var4 var3 var2 var1 var0))))
(assert (forall ((var0 Addr) (var1 Int) (var2 Addr) (var3 Addr) (var4 Heap)) (not (and (inv_main81 var4 var3 var2 var1 var0) (not (is-O_TSLL (read var4 var0)))))))
(assert (forall ((var0 Addr) (var1 Int) (var2 Addr) (var3 Addr) (var4 Heap)) (not (inv_main88 var4 var3 var2 var1 var0))))
(assert (forall ((var0 Addr) (var1 Int) (var2 Addr) (var3 Addr) (var4 Heap)) (not (and (inv_main86 var4 var3 var2 var1 var0) (not (is-O_TSLL (read var4 var0)))))))
(assert (forall ((var0 Addr) (var1 Int) (var2 Addr) (var3 Addr) (var4 Heap)) (not (and (inv_main93 var4 var3 var2 var1 var0) (not (is-O_TSLL (read var4 var0)))))))
(assert (forall ((var0 Addr) (var1 Int) (var2 Addr) (var3 Addr) (var4 Heap)) (not (inv_main98 var4 var3 var2 var1 var0))))
(assert (forall ((var0 Addr) (var1 Int) (var2 Addr) (var3 Addr) (var4 Heap)) (not (and (inv_main96 var4 var3 var2 var1 var0) (not (is-O_TSLL (read var4 var2)))))))
(assert (forall ((var0 Addr) (var1 Addr) (var2 Heap)) (not (and (inv_main103 var2 var1 var0) (not (is-O_TSLL (read var2 var1)))))))
(assert (forall ((var0 Addr) (var1 Addr) (var2 Heap)) (not (inv_main111 var2 var1 var0))))
(assert (forall ((var0 Addr) (var1 Addr) (var2 Heap)) (not (and (inv_main109 var2 var1 var0) (not (is-O_TSLL (read var2 var0)))))))
(assert (forall ((var0 Addr) (var1 Addr) (var2 Heap)) (not (inv_main116 var2 var1 var0))))
(assert (forall ((var0 Addr) (var1 Addr) (var2 Heap)) (not (and (inv_main114 var2 var1 var0) (not (is-O_TSLL (read var2 var0)))))))
(assert (forall ((var0 Addr) (var1 Addr) (var2 Heap)) (not (inv_main121 var2 var1 var0))))
(assert (forall ((var0 Addr) (var1 Addr) (var2 Heap)) (not (and (inv_main106 var2 var1 var0) (not (is-O_TSLL (read var2 var1)))))))
(check-sat)
